Instance Name : rc105
Date : 2022-07-19
Solution
Route 1 : 82 11 9 10 13 17
Route 2 : 88 79 73 60
Route 3 : 95 62 67 71 93 96
Route 4 : 92 33 63 84 56 66
Route 5 : 42 44 40 35 43 70
Route 6 : 81 61 68
Route 7 : 85 51 76 89 48 21 25 24
Route 8 : 39 36 37 38 41 72 54 94 80
Route 9 : 69 98 53
Route 10 : 64 83 99 57 74
Route 11 : 29 27 26 30 28 32 31 34 50 91
Route 12 : 19 23 18 22 49 20 77
Route 13 : 90
Route 14 : 12 14 15 16 47 78 55
Route 15 : 65 52 86 87 59 97 75 58
Route 16 : 2 45 3 5 8 6 7 46 4 1 100
